NAME: ../File/prFile/tspFile/tsp_file34.tsp
COMMENT: TSP file generated by Python
TYPE: TSP
DIMENSION: 30
EDGE_WEIGHT_TYPE: EUC_2D
NODE_COORD_SECTION
1 36 39
2 11 96
3 100 32
4 96 65
5 73 55
6 54 11
7 100 36
8 68 68
9 22 9
10 4 67
11 13 56
12 23 74
13 38 72
14 78 71
15 44 61
16 4 52
17 12 69
18 72 62
19 20 52
20 26 7
21 12 46
22 25 29
23 47 19
24 82 29
25 78 51
26 59 23
27 10 34
28 50 79
29 43 30
30 6 31
EOF
